40
120
280
600
1240
1360
1520
2240
2320
2400
3360
3520
3560
3600
3680
4920
5040
5080
5120
5200
6520
6680
6800
7840
8040
8920
9240
9560
10400
10640
10840
11680
12120
12680
13360
13880
14440
15240
15640
16200
17000
17360
17920
18720
19320
19880
20880
41800
45760
91560
183160
366360
